15 3 
1734	1734	1734	
697	192	365	
538	510	977	
120	256	505	
204	948	1243	
959	591	1096	
904	920	1782	
108	586	841	
325	434	512	
246	364	675	
647	286	371	
863	558	781	
582	218	324	
268	272	485	
870	632	1100	
909	169	274	
